10J3M/DAT/10J3MULX-3.dat
10 3
23.9572 4.8946
6.7923 2.6062
40.1905 6.3396
9.9288 3.151
48.6014 6.9715
13.5915 3.6867
1.443 1.2012
27.7763 5.2703
11.5958 3.4053
36.575 6.0477
14.5247