10J3M/SOL/10J3MULX-3.sol
solution status: optimal solution found
objective value:                     99.8359802061246
x#1#2                                               1 	(obj:0)
x#2#1                               0.907372160104974 	(obj:0)
x#2#2                              0.0926278398950263 	(obj:0)
x#3#2                                               1 	(obj:0)
x#4#1                                               1 	(obj:0)
x#5#3                                               1 	(obj:0)
x#6#2                               0.336763740434503 	(obj:0)
x#6#3                               0.663236259565497 	(obj:0)
x#7#3                                               1 	(obj:0)
x#8#1                                               1 	(obj:0)
x#9#2                               0.824421920092004 	(obj:0)
x#9#3                               0.175578079907996 	(obj:0)
x#10#1                              0.399567107351229 	(obj:0)
x#10#3                              0.600394340661414 	(obj:0)
z                                    99.8359802061246 	(obj:1)
